% Numero de dias.
D = 15;
% Numero de trabajadores.
T = 15;
% Numero de trabajadores en cada turno.
N1 = 2;
N2 = 2;
N3 = 2;

% Numero maximo dias consecutivos (nadie trabaja MaxDT dias consecutivos).
MaxDT = 7;
% Numero maximo dias libres (nadie tiene MaxDL dias libres consecutivos).
MaxDL = 8;
% Numero minimo dias trabajados (todos trabajan como minimo MinDT en los D dias).
MinDT = 2;

% Trabajadores afines 
% (cada trabajador de un turno tiene que estar con al menos A trabajadores afines en ese turno) .
A = 1;

afin = [ {1, 2, 3, 4, 5, 6, 7, 8, 9, 10, 11, 12, 13, 14, 15} % Trabajador_1
        ,{3} % Trabajador_2
        ,{1, 2, 3, 4, 5, 6, 7, 8, 9, 10, 11, 12, 13, 14, 15} % Trabajador_3
        ,{1, 2, 3, 4, 5, 6, 7, 8, 9, 10, 11, 12, 13, 14, 15} % Trabajador_4
        ,{1, 2, 3, 4, 5, 6, 7, 8, 9, 10, 11, 12, 13, 14, 15} % Trabajador_5
        ,{1, 2, 3, 4, 5, 6, 7, 8, 9, 10, 11, 12, 13, 14, 15} % Trabajador_6
        ,{1, 2, 3, 4, 5, 6, 7, 8, 9, 10, 11, 12, 13, 14, 15} % Trabajador_7
        ,{1, 2, 3, 4, 5, 6, 7, 8, 9, 10, 11, 12, 13, 14, 15} % Trabajador_8
        ,{10, 11, 12, 13, 14, 15} % Trabajador_9
        ,{1, 2, 3, 4, 5, 6, 7, 8, 9, 10, 11, 12, 13, 14, 15} % Trabajador_10
        ,{1, 2, 3, 4, 5, 6, 7, 8, 9, 10, 11, 12, 13, 14, 15} % Trabajador_11
        ,{1, 2, 3, 4, 5, 6, 7, 8, 9, 10, 11, 12, 13, 14, 15} % Trabajador_12
        ,{1, 2, 3, 4, 5, 6, 7, 8, 9, 10, 11, 12, 13, 14, 15} % Trabajador_13
        ,{1, 2, 3, 4, 5, 6, 7, 8, 9, 10, 11, 12, 13, 14, 15} % Trabajador_14
        ,{1, 2, 3, 4, 5, 6, 7, 8, 9, 10, 11, 12, 13, 14, 15} % Trabajador_15
        ]; 

% Categorias de los trabajadores.
C = 1;
categ = [1, 1, 1, 1, 1, 1, 1, 1, 1, 1, 1, 1, 1, 1, 1];

% Dias consecutivos sin trabajar por cada trabajador.
diasLibres = [5, 0, 0, 6, 0, 0, 5, 0, 0, 0, 0, 0, 0, 0, 0];

% Turno odiado por cada trabajador para cada día.
% 0 -> ninguno | 1 -> Turno1 | 2 -> Turno2 | 3 -> Turno3
turnoLibre = [| 3, 3, 3, 3, 3, 3, 0, 0, 0, 0, 0, 0, 0, 0, 3,
              | 0, 3, 0, 0, 0, 0, 0, 0, 0, 0, 0, 0, 0, 3, 0, 
              | 0, 0, 3, 0, 0, 0, 0, 0, 0, 0, 0, 0, 3, 0, 0, 
              | 0, 0, 0, 3, 0, 0, 0, 0, 0, 0, 0, 3, 0, 0, 0, 
              | 0, 0, 0, 0, 3, 0, 0, 0, 0, 0, 3, 0, 0, 0, 0,
              | 0, 0, 0, 0, 0, 3, 0, 0, 0, 3, 0, 0, 0, 0, 0, 
              | 0, 0, 0, 0, 0, 0, 3, 0, 3, 0, 0, 0, 0, 0, 0, 
              | 0, 0, 0, 0, 0, 0, 0, 3, 0, 0, 0, 0, 0, 0, 0, 
              | 0, 0, 0, 0, 0, 0, 3, 0, 3, 0, 0, 0, 0, 0, 0, 
              | 0, 0, 0, 0, 0, 3, 0, 0, 0, 3, 0, 0, 0, 0, 0, 
              | 0, 0, 0, 0, 3, 0, 0, 0, 0, 0, 3, 0, 0, 0, 0, 
              | 0, 0, 0, 3, 0, 0, 0, 0, 0, 0, 0, 3, 0, 0, 0, 
              | 0, 0, 3, 0, 0, 0, 0, 0, 0, 0, 0, 0, 3, 0, 0, 
              | 2, 2, 3, 2, 1, 2, 2, 2, 2, 2, 2, 2, 2, 2, 2, 
              | 3, 3, 3, 3, 3, 3, 3, 3, 3, 3, 3, 3, 3, 3, 3, 
              |];